120
150
47
23
37
39
79
81
67
22
27
54
47
27
26
70
38
65
47
92
50
27
39
81
47
55
50
50
65
31
26
28
73
73
69
81
59
90
49
57
44
54
37
74
53
23
23
59
68
54
84
84
64
26
50
85
65
63
39
100
50
76
40
34
71
79
54
95
50
100
89
68
81
35
31
84
81
69
84
50
65
85
50
95
35
33
95
55
73
76
50
100
79
71
79
91
59
63
37
50
76
73
31
47
72
95
50
27
50
73
65
81
63
90
59
70
80
69
81
50
100
89
